Version identifier: 20.1.0.0 | 2020-11-10 | 9bedb6d68
Tried aggregator 2 times.
MIP Presolve eliminated 669 rows and 392 columns.
MIP Presolve modified 1299 coefficients.
Aggregator did 81 substitutions.
Reduced MIP has 531 rows, 434 columns, and 1686 nonzeros.
Reduced MIP has 102 binaries, 332 generals, 0 SOSs, and 0 indicators.
Presolve time = 0.01 sec. (2.79 ticks)
Found incumbent of value 642.000000 after 0.01 sec. (4.32 ticks)
Probing fixed 15 vars, tightened 122 bounds.
Probing time = 0.00 sec. (0.35 ticks)
Tried aggregator 1 time.
Detecting symmetries...
MIP Presolve eliminated 225 rows and 15 columns.
MIP Presolve modified 30 coefficients.
Reduced MIP has 306 rows, 419 columns, and 996 nonzeros.
Reduced MIP has 132 binaries, 287 generals, 0 SOSs, and 0 indicators.
Presolve time = 0.00 sec. (1.09 ticks)
Probing time = 0.00 sec. (0.08 ticks)
Clique table members: 16.
MIP emphasis: balance optimality and feasibility.
MIP search method: dynamic search.
Parallel mode: deterministic, using up to 24 threads.
Root relaxation solution time = 0.00 sec. (0.74 ticks)

        Nodes                                         Cuts/
   Node  Left     Objective  IInf  Best Integer    Best Bound    ItCnt     Gap

*     0+    0                          642.0000        0.0000           100.00%
*     0+    0                           25.0000        0.0000           100.00%
      0     0        0.0000    21       25.0000        0.0000      101  100.00%
      0     0        1.7000    75       25.0000      Cuts: 37      166   93.20%
*     0+    0                           11.0000        1.7000            84.55%
      0     0        2.0645   107       11.0000      Cuts: 74      300   81.23%
      0     0        2.1250   101       11.0000      Cuts: 42      332   80.68%
      0     0        2.1250   116       11.0000      Cuts: 25      350   80.68%
      0     0        2.1250    50       11.0000       Cuts: 7      351   80.68%
*     0+    0                            9.0000        2.1250            76.39%
      0     0        2.1250    58        9.0000       Cuts: 9      362   76.39%
*     0+    0                            7.0000        2.1250            69.64%
*     0+    0                            6.0000        2.1250            64.58%
      0     0        cutoff              6.0000        6.0000      362    0.00%
Elapsed time = 0.96 sec. (37.83 ticks, tree = 0.01 MB, solutions = 6)

Cover cuts applied:  1
Implied bound cuts applied:  13
Flow cuts applied:  1
Mixed integer rounding cuts applied:  9
Zero-half cuts applied:  14
Lift and project cuts applied:  1
Gomory fractional cuts applied:  4

Root node processing (before b&c):
  Real time             =    0.96 sec. (37.89 ticks)
Parallel b&c, 24 threads:
  Real time             =    0.00 sec. (0.00 ticks)
  Sync time (average)   =    0.00 sec.
  Wait time (average)   =    0.00 sec.
                          ------------
Total (root+branch&cut) =    0.96 sec. (37.89 ticks)

Solution status = Optimal
Solution LB = 6
Solution UB = 6
Runtime = 0.971708 seconds
	Command being timed: "/home/min/git_repos/CS598MEBProject/CNT-ILP/build/cnt -s 2 ./output/k6_n15/simC_c1_k6_n15_u1_s2_del02.input-right.cnp"
	User time (seconds): 17.14
	System time (seconds): 0.05
	Percent of CPU this job got: 1745%
	Elapsed (wall clock) time (h:mm:ss or m:ss): 0:00.98
	Average shared text size (kbytes): 0
	Average unshared data size (kbytes): 0
	Average stack size (kbytes): 0
	Average total size (kbytes): 0
	Maximum resident set size (kbytes): 61308
	Average resident set size (kbytes): 0
	Major (requiring I/O) page faults: 0
	Minor (reclaiming a frame) page faults: 12714
	Voluntary context switches: 3102
	Involuntary context switches: 2306
	Swaps: 0
	File system inputs: 0
	File system outputs: 16
	Socket messages sent: 0
	Socket messages received: 0
	Signals delivered: 0
	Page size (bytes): 4096
	Exit status: 0
